80 80
49 67 1
89 43 1
96 16 1
73 90 1
94 8 1
94 39 1
41 27 1
91 41 1
45 83 1
10 47 1
66 50 1
73 5 1
10 4 1
94 16 1
81 35 1
99 30 1
37 96 1
88 47 1
5 31 1
98 17 1
83 46 1
91 39 1
100 39 1
55 64 1
26 10 1
3 96 1
6 71 1
85 25 1
92 36 1
86 9 1
23 40 1
11 98 1
73 23 1
79 37 1
67 33 1
6 86 1
47 80 1
79 26 1
96 38 1
74 25 1
96 32 1
33 27 1
98 4 1
87 32 1
67 4 1
70 40 1
11 88 1
73 50 1
81 38 1
95 14 1
91 22 1
67 30 1
69 33 1
93 50 1
83 23 1
69 22 1
49 41 1
99 47 1
25 36 1
79 25 1
68 9 1
20 7 1
90 11 1
98 41 1
80 40 1
67 27 1
71 47 1
90 17 1
100 32 1
97 10 1
43 97 1
90 6 1
40 90 1
51 53 1
93 5 1
98 6 1
95 1 1
79 10 1
98 26 1
20 77 1
100 100 
100 100 
100 100 
100 100 
100 100 
100 100 
100 100 
100 100 
100 100 
100 100 
100 100 
100 100 
100 100 
100 100 
100 100 
100 100 
100 100 
100 100 
100 100 
100 100 
100 100 
100 100 
100 100 
100 100 
100 100 
100 100 
100 100 
100 100 
100 100 
100 100 
100 100 
100 100 
100 100 
100 100 
100 100 
100 100 
100 100 
100 100 
100 100 
100 100 
100 100 
100 100 
100 100 
100 100 
100 100 
100 100 
100 100 
100 100 
100 100 
100 100 
100 100 
100 100 
100 100 
100 100 
100 100 
100 100 
100 100 
100 100 
100 100 
100 100 
100 100 
100 100 
100 100 
100 100 
100 100 
100 100 
100 100 
100 100 
100 100 
100 100 
100 100 
100 100 
100 100 
100 100 
100 100 
100 100 
100 100 
100 100 
100 100 
100 100 
